3
Coordinates from ORCA-job job E -188.494571984013
  O       0.000000      0.000000     -1.160000
  C       0.000000      0.000000      0.000000
  O       0.000000      0.000000      1.160000
3
Coordinates from ORCA-job job E -188.494967669357
  O      -0.000000      0.000000     -1.168847
  C       0.000000     -0.000000     -0.000000
  O      -0.000000      0.000000      1.168847
3
Coordinates from ORCA-job job E -188.494971433726
  O      -0.000000     -0.000000     -1.169779
  C       0.000000      0.000000     -0.000000
  O      -0.000000     -0.000000      1.169779
3
Coordinates from ORCA-job job E -188.494971442111
  O      -0.000000     -0.000000     -1.169821
  C       0.000000      0.000000      0.000000
  O      -0.000000     -0.000000      1.169821
