3
Coordinates from ORCA-job job E -76.369766044552
  O       0.000000      0.000000      0.117300
  H       0.000000      0.757200     -0.469200
  H       0.000000     -0.757200     -0.469200
3
Coordinates from ORCA-job job E -76.369983731003
  O       0.000000      0.000000      0.122160
  H       0.000000      0.765191     -0.471630
  H       0.000000     -0.765191     -0.471630
3
Coordinates from ORCA-job job E -76.369989230820
  O       0.000000      0.000000      0.123500
  H       0.000000      0.763917     -0.472300
  H       0.000000     -0.763917     -0.472300
3
Coordinates from ORCA-job job E -76.369990655258
  O       0.000000     -0.000000      0.124600
  H       0.000000      0.762772     -0.472850
  H       0.000000     -0.762772     -0.472850
3
Coordinates from ORCA-job job E -76.369990658863
  O       0.000000     -0.000000      0.124593
  H       0.000000      0.762770     -0.472846
  H       0.000000     -0.762770     -0.472846
