2
Coordinates from ORCA-job job E -150.256695858155
  O       0.000000      0.000000     -0.604000
  O       0.000000      0.000000      0.604000
2
Coordinates from ORCA-job job E -150.256756838332
  O       0.000000      0.000000     -0.606787
  O       0.000000      0.000000      0.606787
2
Coordinates from ORCA-job job E -150.256757897561
  O       0.000000      0.000000     -0.607199
  O       0.000000      0.000000      0.607199
2
Coordinates from ORCA-job job E -150.256757898440
  O       0.000000      0.000000     -0.607209
  O       0.000000      0.000000      0.607209
