9
Coordinates from ORCA-job job E -154.935539515224
  C          -0.72559752872958     -0.00396844004685     -0.01832984605130
  C           0.77830734569499     -0.08428988470855     -0.22920781897546
  O           1.34262460640855      1.15610295696693      0.18488895637382
  H          -1.20852823662519     -0.93885040918213     -0.32498416577256
  H          -0.95357807152580      0.17797246210866      1.03738861016558
  H          -1.14956835581480      0.81734956586881     -0.60604503243676
  H           1.19424516431167     -0.92327231552288      0.35363842143775
  H           0.99755768207033     -0.28434703889659     -1.29151727798600
  H           2.30153739420983      1.10830310341259      0.05216815324494
