9
Coordinates from ORCA-job job E -154.899501905838
  C      -0.748000      0.015000      0.024000
  C       0.748000     -0.015000     -0.024000
  O       1.401000      1.195000     -0.346000
  H      -1.120000     -0.600000     -0.843000
  H      -1.120000     -0.465000      0.932000
  H      -1.141000      1.030000     -0.014000
  H       1.112000     -0.750000      0.733000
  H       1.112000     -0.465000     -0.956000
  H       2.333000      1.080000     -0.348000
9
Coordinates from ORCA-job job E -154.919451255486
  C      -0.745724      0.008564      0.010190
  C       0.769624     -0.048928     -0.065972
  O       1.376633      1.226259     -0.313938
  H      -1.166242     -0.573665     -0.827325
  H      -1.114874     -0.453107      0.931077
  H      -1.114327      1.036590     -0.026400
  H       1.156091     -0.723141      0.724613
  H       1.081110     -0.587674     -0.981417
  H       2.334708      1.140102     -0.292827
9
Coordinates from ORCA-job job E -154.928282313045
  C      -0.735401      0.002473     -0.003054
  C       0.790959     -0.085802     -0.112791
  O       1.327519      1.225881     -0.272829
  H      -1.212752     -0.554246     -0.813582
  H      -1.097650     -0.424995      0.938581
  H      -1.065001      1.044441     -0.049079
  H       1.207155     -0.681327      0.716043
  H       1.067982     -0.665769     -1.013384
  H       2.294188      1.164345     -0.231905
9
Coordinates from ORCA-job job E -154.930069857478
  C      -0.730168     -0.006148     -0.009190
  C       0.799088     -0.105803     -0.146632
  O       1.304863      1.219911     -0.235314
  H      -1.247027     -0.555429     -0.803570
  H      -1.082275     -0.402274      0.949896
  H      -1.029869      1.043861     -0.069627
  H       1.225101     -0.646479      0.713465
  H       1.063821     -0.693506     -1.042890
  H       2.273466      1.170867     -0.198138
9
Coordinates from ORCA-job job E -154.930228505533
  C      -0.732950     -0.010609     -0.009256
  C       0.796867     -0.105465     -0.148577
  O       1.311282      1.220804     -0.218613
  H      -1.252192     -0.567325     -0.796485
  H      -1.082907     -0.392494      0.955734
  H      -1.029779      1.039586     -0.083690
  H       1.224637     -0.647132      0.710357
  H       1.062415     -0.680181     -1.051349
  H       2.279627      1.167817     -0.200122
9
Coordinates from ORCA-job job E -154.930444463701
  C      -0.736372     -0.016930     -0.008514
  C       0.792141     -0.105658     -0.151041
  O       1.320016      1.221378     -0.175717
  H      -1.257279     -0.601708     -0.773272
  H      -1.081257     -0.357229      0.972741
  H      -1.030870      1.030907     -0.126250
  H       1.223724     -0.663866      0.695177
  H       1.060082     -0.643103     -1.073804
  H       2.286815      1.161210     -0.201319
9
Coordinates from ORCA-job job E -154.930963942637
  C      -0.740563     -0.026126     -0.006035
  C       0.783600     -0.107516     -0.158778
  O       1.335742      1.215043     -0.075098
  H      -1.263678     -0.684048     -0.706225
  H      -1.072832     -0.258981      1.008873
  H      -1.035223      1.004935     -0.233864
  H       1.223419     -0.715798      0.647429
  H       1.052459     -0.554316     -1.125572
  H       2.294077      1.151807     -0.192730
9
Coordinates from ORCA-job job E -154.931371211980
  C      -0.741898     -0.030086     -0.003770
  C       0.778125     -0.109482     -0.163310
  O       1.345292      1.205380     -0.010496
  H      -1.264091     -0.735068     -0.656794
  H      -1.066594     -0.189512      1.026902
  H      -1.038563      0.982465     -0.304826
  H       1.223394     -0.753392      0.611248
  H       1.046853     -0.493267     -1.155573
  H       2.294482      1.147963     -0.185380
9
Coordinates from ORCA-job job E -154.932091871481
  C      -0.733656     -0.021220      0.002320
  C       0.770689     -0.119654     -0.154768
  O       1.328730      1.197709      0.033576
  H      -1.238359     -0.778215     -0.605377
  H      -1.058647     -0.110844      1.041981
  H      -1.039028      0.965256     -0.372185
  H       1.224557     -0.818868      0.562039
  H       1.050609     -0.428266     -1.174002
  H       2.272105      1.139102     -0.175584
9
Coordinates from ORCA-job job E -154.933004384176
  C      -0.733873     -0.023885      0.002168
  C       0.766746     -0.120271     -0.172717
  O       1.343507      1.173119      0.127066
  H      -1.242178     -0.844450     -0.514558
  H      -1.039095     -0.000212      1.050802
  H      -1.050143      0.914148     -0.473501
  H       1.224042     -0.864493      0.495268
  H       1.036072     -0.347633     -1.213547
  H       2.271922      1.138677     -0.142979
9
Coordinates from ORCA-job job E -154.933449008993
  C      -0.728471     -0.014236     -0.017386
  C       0.789762     -0.097960     -0.230471
  O       1.334500      1.174296      0.149322
  H      -1.264853     -0.871175     -0.453326
  H      -0.983272      0.044848      1.045587
  H      -1.088199      0.892240     -0.502750
  H       1.229423     -0.843533      0.453855
  H       0.999709     -0.400860     -1.262083
  H       2.288402      1.141380     -0.024748
9
Coordinates from ORCA-job job E -154.935068580926
  C      -0.726830     -0.010421     -0.013184
  C       0.777705     -0.100649     -0.216491
  O       1.340104      1.158013      0.193686
  H      -1.233842     -0.910416     -0.384463
  H      -0.980957      0.125988      1.042475
  H      -1.104519      0.851680     -0.570746
  H       1.216726     -0.903600      0.397940
  H       1.003341     -0.315009     -1.271029
  H       2.285273      1.129412     -0.020187
9
Coordinates from ORCA-job job E -154.935433023103
  C      -0.725868     -0.005955     -0.016365
  C       0.776385     -0.093632     -0.218328
  O       1.342200      1.153600      0.201363
  H      -1.217063     -0.929593     -0.343897
  H      -0.968336      0.162979      1.037868
  H      -1.128376      0.829707     -0.598680
  H       1.203645     -0.924833      0.366341
  H       1.002598     -0.286935     -1.279426
  H       2.291815      1.119661      0.009125
9
Coordinates from ORCA-job job E -154.935526523296
  C      -0.725588     -0.003475     -0.019301
  C       0.777929     -0.086600     -0.223697
  O       1.343258      1.153574      0.195387
  H      -1.209292     -0.937536     -0.326613
  H      -0.958024      0.175680      1.036097
  H      -1.145371      0.820482     -0.606421
  H       1.194279     -0.928530      0.354348
  H       1.001493     -0.282098     -1.286252
  H       2.298315      1.113501      0.034451
9
Coordinates from ORCA-job job E -154.935535657820
  C      -0.725488     -0.003381     -0.019571
  C       0.778540     -0.084747     -0.226899
  O       1.343453      1.153161      0.193349
  H      -1.208330     -0.939340     -0.322984
  H      -0.954712      0.178966      1.036044
  H      -1.149055      0.817608     -0.607873
  H       1.192295     -0.927234      0.352580
  H       1.000245     -0.281764     -1.289479
  H       2.300051      1.111731      0.042833
9
Coordinates from ORCA-job job E -154.935537626861
  C      -0.725597     -0.003589     -0.019125
  C       0.778754     -0.084433     -0.227552
  O       1.343155      1.154743      0.187770
  H      -1.208707     -0.937917     -0.327122
  H      -0.954468      0.175103      1.037109
  H      -1.149161      0.819560     -0.604431
  H       1.192156     -0.924518      0.355736
  H       1.000054     -0.285224     -1.289400
  H       2.300812      1.111276      0.045015
9
Coordinates from ORCA-job job E -154.935538640842
  C      -0.725544     -0.003807     -0.018726
  C       0.778614     -0.084332     -0.228673
  O       1.343046      1.154631      0.187803
  H      -1.208531     -0.938765     -0.325288
  H      -0.953691      0.177619      1.037107
  H      -1.149506      0.817741     -0.605970
  H       1.192644     -0.924291      0.354344
  H       0.998856     -0.283977     -1.290794
  H       2.301113      1.110181      0.048197
9
Coordinates from ORCA-job job E -154.935539255913
  C      -0.725565     -0.003925     -0.018421
  C       0.778443     -0.084366     -0.228998
  O       1.342818      1.155337      0.186363
  H      -1.208493     -0.938833     -0.325130
  H      -0.953600      0.178024      1.037289
  H      -1.149501      0.817377     -0.606121
  H       1.193469     -0.923809      0.353932
  H       0.998096     -0.284024     -1.291236
  H       2.301333      1.109219      0.050321
9
Coordinates from ORCA-job job E -154.935539515224
  C      -0.725598     -0.003968     -0.018330
  C       0.778307     -0.084290     -0.229208
  O       1.342625      1.156103      0.184889
  H      -1.208528     -0.938850     -0.324984
  H      -0.953578      0.177972      1.037389
  H      -1.149568      0.817350     -0.606045
  H       1.194245     -0.923272      0.353638
  H       0.997558     -0.284347     -1.291517
  H       2.301537      1.108303      0.052168
